/* Objective function */
max: +C5;

/* Constraints */
R1: +C1 >= 0;
R2: +C2 >= 0;
R3: +C3 >= 0;
+C1 -C5 >= 0;
+C2 -C5 >= 0;
+C3 -C5 >= 0;
+C4 -C5 >= 0;
+0.218818381 C1 +0.262582057 C2 +0.306345733 C3 +0.262582057 C4 <= 4;
